output ["\"output\": {","\"default\": ",showJSON(concat(["Costo: "++format(costo)++", P: "++format(P)++""])),", \"raw\": ",showJSON(concat(["Costo: "++format(costo)++", P: "++format(P)++""])),"}, \"sections\": [\"default\", \"raw\"]"];
int: J = 3;
int: K = 3;
array [1..9] of int: X_INTRODUCED_0_;
array [1..J,1..K] of int: P = array2d(1..3,1..3,X_INTRODUCED_0_);
float: costo;
